unsat
((set-logic NIA)
(declare-fun c!3 () Int)
(declare-fun k!2 () Int)
(declare-fun n!0 () Int)
(declare-fun m!1 () Int)
(proof
(let (($x156 (>= c!3 0)))
 (let (($x457 (not $x156)))
 (let (($x113 (<= c!3 0)))
 (let ((?x389 (* (- 1) k!2)))
 (let ((?x385 (* (- 3) c!3)))
 (let ((?x593 (* n!0 k!2)))
 (let ((?x227 (* 2 n!0)))
 (let ((?x391 (+ ?x227 ?x593 ?x385 ?x389)))
 (let (($x394 (<= ?x391 0)))
 (let (($x471 (= ?x391 0)))
 (let ((?x410 (* (- 32) k!2)))
 (let ((?x358 (* (- 27) c!3)))
 (let ((?x172 (* (- 9) ?x593)))
 (let ((?x392 (* m!1 m!1)))
 (let ((?x377 (* k!2 k!2)))
 (let ((?x411 (* (- 5) m!1)))
 (let ((?x372 (* 2 (* m!1 k!2))))
 (let ((?x211 (* n!0 c!3)))
 (let ((?x586 (* (- 9) ?x211)))
 (let ((?x622 (* 9 n!0)))
 (let ((?x158 (+ m!1 k!2)))
 (let ((?x582 (+ 1 n!0)))
 (let ((?x454 (* ?x582 ?x158 ?x158 (+ 13 ?x622 ?x586 ?x372 ?x411 ?x377 ?x392 ?x172 ?x358 ?x410))))
 (let (($x268 (not (= (+ ?x622 (* 3 (* n!0 n!0)) (* (- 1) m!1) ?x389) (- 6)))))
 (let ((?x435 (* (- 1) m!1)))
 (let ((?x596 (+ (* 6 n!0) ?x435)))
 (let (($x110 (= ?x596 (- 6))))
 (let (($x151 (not $x110)))
 (let (($x318 (or $x151 $x268 (not (= (+ ?x227 (* n!0 m!1) ?x593 ?x385 (* (- 3) k!2)) (- 2))) (not (= (+ ?x622 ?x586 ?x372 ?x411 ?x377 ?x392 ?x172 ?x358 ?x410) (- 13))) (not (= ?x454 0)))))
 (let ((?x519 (+ (* 9 (* n!0 n!0 k!2 k!2)) (* 4 (* n!0 k!2 k!2)) (* (- 18) (* n!0 c!3 k!2 k!2)) (* (- 9) (* n!0 n!0 c!3 k!2 k!2)) (* (- 5) (* n!0 k!2 k!2 k!2)) (* n!0 k!2 k!2 k!2 k!2))))
 (let (($x522 (= ?x519 0)))
 (let ((?x177 (* n!0 n!0)))
 (let ((?x561 (* 3 ?x177)))
 (let ((?x427 (+ (* 3 n!0) ?x561 ?x389)))
 (let (($x426 (= ?x427 0)))
 (let ((?x366 (+ ?x622 ?x586 ?x377 (* (- 18) c!3) (* (- 5) k!2))))
 (let (($x154 (= ?x366 (- 4))))
 (let (($x480 (and $x110 $x154 $x471 $x426 $x522 $x318)))
 (let ((?x209 (* k!2 n!0)))
 (let ((?x208 (* (- 1) ?x209)))
 (let ((?x212 (* (- 2) n!0)))
 (let ((?x600 (* 3 c!3)))
 (let (($x578 (= (+ ?x600 (* 3 k!2) ?x212 ?x208 (* (- 1) (* m!1 n!0))) 2)))
 (let ((?x188 (* c!3 n!0)))
 (let ((?x599 (* 9 ?x188)))
 (let ((?x375 (* (- 1) ?x377)))
 (let ((?x108 (* (- 9) n!0)))
 (let ((?x597 (+ (* 27 c!3) (* 32 k!2) (* 5 m!1) ?x108 ?x375 (* 9 ?x209) ?x599 (* (- 2) (* k!2 m!1)) (* (- 1) ?x392))))
 (let ((?x444 (+ 13 ?x358 ?x410 ?x411 ?x622 ?x377 (* (- 9) ?x209) (* (- 9) ?x188) (* 2 (* k!2 m!1)) ?x392)))
 (let ((?x587 (+ k!2 m!1)))
 (let (($x579 (or (not (= (+ k!2 m!1 ?x108 (* (- 3) ?x177)) 6)) (not (= (+ m!1 (* (- 6) n!0)) 6)) (not (= (* ?x582 ?x587 ?x587 ?x444) 0)) (not (= ?x597 13)) (not $x578))))
 (let ((?x647 (+ (* 9 (* c!3 k!2 k!2 n!0 n!0)) (* (- 4) (* k!2 k!2 n!0)) (* 5 (* k!2 k!2 k!2 n!0)) (* 18 (* c!3 k!2 k!2 n!0)) (* (- 9) (* k!2 k!2 n!0 n!0)) (* (- 1) (* k!2 k!2 k!2 k!2 n!0)))))
 (let (($x132 (= (+ m!1 (* (- 6) n!0)) 6)))
 (let (($x406 (and $x132 (= (+ (* 18 c!3) (* 5 k!2) ?x108 ?x375 ?x599) 4) (= (+ ?x600 k!2 ?x212 ?x208) 0) (= (+ k!2 (* (- 3) n!0) (* (- 3) ?x177)) 0) (= ?x647 0) $x579)))
 (let (($x383 (exists ((c Int) (k Int) (m Int) (n Int) )(! (let ((?x52 (* k n)))
 (let ((?x260 (* (- 1) ?x52)))
 (let ((?x259 (* (- 2) n)))
 (let ((?x257 (* 3 c)))
 (let (($x632 (= (+ ?x257 (* 3 k) ?x259 ?x260 (* (- 1) (* m n))) 2)))
 (let (($x640 (not $x632)))
 (let ((?x155 (* c n)))
 (let ((?x157 (* 9 ?x155)))
 (let ((?x46 (* k k)))
 (let ((?x220 (* (- 1) ?x46)))
 (let ((?x219 (* (- 9) n)))
 (let ((?x461 (* 5 m)))
 (let ((?x549 (+ (* 27 c) (* 32 k) ?x461 ?x219 ?x220 (* 9 ?x52) ?x157 (* (- 2) (* k m)) (* (- 1) (* m m)))))
 (let (($x553 (not (= ?x549 13))))
 (let ((?x512 (* m m)))
 (let ((?x170 (* (- 9) ?x155)))
 (let ((?x45 (* 9 n)))
 (let ((?x478 (* (- 5) m)))
 (let ((?x533 (+ 13 (* (- 27) c) (* (- 32) k) ?x478 ?x45 ?x46 (* (- 9) ?x52) ?x170 (* 2 (* k m)) ?x512)))
 (let ((?x76 (+ k m)))
 (let ((?x339 (+ 1 n)))
 (let (($x140 (= (+ m (* (- 6) n)) 6)))
 (let (($x387 (not $x140)))
 (let (($x428 (or (not (= (+ k m ?x219 (* (- 3) (* n n))) 6)) $x387 (not (= (* ?x339 ?x76 ?x76 ?x533) 0)) $x553 $x640)))
 (let ((?x198 (* (- 1) (* k k k k n))))
 (let ((?x197 (* (- 9) (* k k n n))))
 (let ((?x196 (* 18 (* c k k n))))
 (let ((?x187 (* 5 (* k k k n))))
 (let ((?x630 (* 9 (* c k k n n))))
 (let (($x186 (= (+ ?x630 (* (- 4) (* k k n)) ?x187 ?x196 ?x197 ?x198) 0)))
 (let (($x298 (= (+ k (* (- 3) n) (* (- 3) (* n n))) 0)))
 (let (($x262 (= (+ ?x257 k ?x259 ?x260) 0)))
 (let (($x217 (= (+ (* 18 c) (* 5 k) ?x219 ?x220 ?x157) 4)))
 (and $x140 $x217 $x262 $x298 $x186 $x428)))))))))))))))))))))))))))))))))) :qid k!39))
 ))
 (let (($x450 (exists ((c Int) (k Int) (m Int) (n Int) )(! (let ((?x52 (* k n)))
 (let ((?x260 (* (- 1) ?x52)))
 (let ((?x259 (* (- 2) n)))
 (let ((?x257 (* 3 c)))
 (let (($x632 (= (+ ?x257 (* 3 k) ?x259 ?x260 (* (- 1) (* m n))) 2)))
 (let (($x640 (not $x632)))
 (let ((?x155 (* c n)))
 (let ((?x157 (* 9 ?x155)))
 (let ((?x46 (* k k)))
 (let ((?x220 (* (- 1) ?x46)))
 (let ((?x219 (* (- 9) n)))
 (let ((?x461 (* 5 m)))
 (let ((?x549 (+ (* 27 c) (* 32 k) ?x461 ?x219 ?x220 (* 9 ?x52) ?x157 (* (- 2) (* k m)) (* (- 1) (* m m)))))
 (let (($x553 (not (= ?x549 13))))
 (let ((?x512 (* m m)))
 (let ((?x170 (* (- 9) ?x155)))
 (let ((?x45 (* 9 n)))
 (let ((?x478 (* (- 5) m)))
 (let ((?x533 (+ 13 (* (- 27) c) (* (- 32) k) ?x478 ?x45 ?x46 (* (- 9) ?x52) ?x170 (* 2 (* k m)) ?x512)))
 (let ((?x76 (+ k m)))
 (let ((?x339 (+ 1 n)))
 (let (($x140 (= (+ m (* (- 6) n)) 6)))
 (let (($x387 (not $x140)))
 (let (($x428 (or (not (= (+ k m ?x219 (* (- 3) (* n n))) 6)) $x387 (not (= (* ?x339 ?x76 ?x76 ?x533) 0)) $x553 $x640)))
 (let ((?x198 (* (- 1) (* k k k k n))))
 (let ((?x197 (* (- 9) (* k k n n))))
 (let ((?x196 (* 18 (* c k k n))))
 (let ((?x187 (* 5 (* k k k n))))
 (let ((?x630 (* 9 (* c k k n n))))
 (let (($x200 (= (+ ?x630 (* (- 4) (* n k k)) ?x187 ?x196 ?x197 ?x198) 0)))
 (let (($x298 (= (+ k (* (- 3) n) (* (- 3) (* n n))) 0)))
 (let (($x262 (= (+ ?x257 k ?x259 ?x260) 0)))
 (let (($x217 (= (+ (* 18 c) (* 5 k) ?x219 ?x220 ?x157) 4)))
 (and $x140 $x217 $x262 $x298 $x200 $x428)))))))))))))))))))))))))))))))))) :qid k!39))
 ))
 (let ((?x381 (lambda ((c Int) (k Int) (m Int) (n Int) )(let ((?x52 (* k n)))
 (let ((?x260 (* (- 1) ?x52)))
 (let ((?x259 (* (- 2) n)))
 (let ((?x257 (* 3 c)))
 (let (($x632 (= (+ ?x257 (* 3 k) ?x259 ?x260 (* (- 1) (* m n))) 2)))
 (let (($x640 (not $x632)))
 (let ((?x155 (* c n)))
 (let ((?x157 (* 9 ?x155)))
 (let ((?x46 (* k k)))
 (let ((?x220 (* (- 1) ?x46)))
 (let ((?x219 (* (- 9) n)))
 (let ((?x461 (* 5 m)))
 (let ((?x549 (+ (* 27 c) (* 32 k) ?x461 ?x219 ?x220 (* 9 ?x52) ?x157 (* (- 2) (* k m)) (* (- 1) (* m m)))))
 (let (($x553 (not (= ?x549 13))))
 (let ((?x512 (* m m)))
 (let ((?x170 (* (- 9) ?x155)))
 (let ((?x45 (* 9 n)))
 (let ((?x478 (* (- 5) m)))
 (let ((?x533 (+ 13 (* (- 27) c) (* (- 32) k) ?x478 ?x45 ?x46 (* (- 9) ?x52) ?x170 (* 2 (* k m)) ?x512)))
 (let ((?x76 (+ k m)))
 (let ((?x339 (+ 1 n)))
 (let (($x140 (= (+ m (* (- 6) n)) 6)))
 (let (($x387 (not $x140)))
 (let (($x428 (or (not (= (+ k m ?x219 (* (- 3) (* n n))) 6)) $x387 (not (= (* ?x339 ?x76 ?x76 ?x533) 0)) $x553 $x640)))
 (let ((?x198 (* (- 1) (* k k k k n))))
 (let ((?x197 (* (- 9) (* k k n n))))
 (let ((?x196 (* 18 (* c k k n))))
 (let ((?x187 (* 5 (* k k k n))))
 (let ((?x630 (* 9 (* c k k n n))))
 (let (($x186 (= (+ ?x630 (* (- 4) (* k k n)) ?x187 ?x196 ?x197 ?x198) 0)))
 (let (($x298 (= (+ k (* (- 3) n) (* (- 3) (* n n))) 0)))
 (let (($x262 (= (+ ?x257 k ?x259 ?x260) 0)))
 (let (($x217 (= (+ (* 18 c) (* 5 k) ?x219 ?x220 ?x157) 4)))
 (let (($x364 (and $x140 $x217 $x262 $x298 $x186 $x428)))
 (let (($x200 (= (+ ?x630 (* (- 4) (* n k k)) ?x187 ?x196 ?x197 ?x198) 0)))
 (let (($x421 (and $x140 $x217 $x262 $x298 $x200 $x428)))
 (rewrite (= $x421 $x364)))))))))))))))))))))))))))))))))))))))
 ))
 (let (($x507 (exists ((c Int) (k Int) (m Int) (n Int) )(! (let ((?x76 (+ k m)))
 (let ((?x82 (* ?x76 ?x76)))
 (let ((?x45 (* 9 n)))
 (let ((?x478 (* (- 5) m)))
 (let ((?x73 (+ c k)))
 (let ((?x339 (+ 1 n)))
 (let ((?x417 (* ?x339 ?x73)))
 (let ((?x438 (* (- 9) ?x417)))
 (let ((?x281 (* (- 23) k)))
 (let ((?x150 (* (- 18) c)))
 (let (($x467 (= (* ?x339 ?x76 ?x76 (+ 13 ?x150 ?x281 ?x438 ?x478 ?x45 ?x82)) 0)))
 (let (($x643 (not $x467)))
 (let ((?x219 (* (- 9) n)))
 (let ((?x461 (* 5 m)))
 (let ((?x37 (* 18 c)))
 (let (($x525 (= (+ ?x37 (* 23 k) (* 9 ?x417) ?x461 ?x219 (* (- 1) ?x82)) 13)))
 (let ((?x259 (* (- 2) n)))
 (let ((?x257 (* 3 c)))
 (let (($x320 (= (+ ?x257 (* 4 k) (* (- 1) (* ?x339 ?x76)) m ?x259) 2)))
 (let (($x140 (= (+ m (* (- 6) n)) 6)))
 (let (($x387 (not $x140)))
 (let ((?x61 (* 3 n)))
 (let ((?x514 (* (- 1) m)))
 (let ((?x563 (* (- 1) k)))
 (let (($x287 (not (= (+ (* 3 (* ?x339 ?x339)) ?x563 ?x514 ?x61) (- 3)))))
 (let ((?x46 (* k k)))
 (let ((?x193 (* (- 5) k)))
 (let ((?x194 (* n c)))
 (let ((?x619 (* (- 9) ?x194)))
 (let (($x162 (= (* (+ 4 ?x150 ?x619 ?x193 ?x45 ?x46) n k k) 0)))
 (let (($x171 (= (+ (* 3 (* n n)) ?x563 ?x61) 0)))
 (let (($x468 (= (+ ?x37 (* 9 ?x194) (* 5 k) ?x219 (* (- 1) ?x46)) 4)))
 (and $x140 $x468 (= (+ ?x257 (* (- 1) (* n k)) k ?x259) 0) $x171 $x162 (or $x287 $x387 (not $x320) (not $x525) $x643)))))))))))))))))))))))))))))))))) :qid k!39))
 ))
 (let ((?x615 (lambda ((c Int) (k Int) (m Int) (n Int) )(let ((?x52 (* k n)))
 (let ((?x260 (* (- 1) ?x52)))
 (let ((?x259 (* (- 2) n)))
 (let ((?x257 (* 3 c)))
 (let (($x632 (= (+ ?x257 (* 3 k) ?x259 ?x260 (* (- 1) (* m n))) 2)))
 (let (($x640 (not $x632)))
 (let ((?x155 (* c n)))
 (let ((?x157 (* 9 ?x155)))
 (let ((?x46 (* k k)))
 (let ((?x220 (* (- 1) ?x46)))
 (let ((?x219 (* (- 9) n)))
 (let ((?x461 (* 5 m)))
 (let ((?x549 (+ (* 27 c) (* 32 k) ?x461 ?x219 ?x220 (* 9 ?x52) ?x157 (* (- 2) (* k m)) (* (- 1) (* m m)))))
 (let (($x553 (not (= ?x549 13))))
 (let ((?x512 (* m m)))
 (let ((?x170 (* (- 9) ?x155)))
 (let ((?x45 (* 9 n)))
 (let ((?x478 (* (- 5) m)))
 (let ((?x533 (+ 13 (* (- 27) c) (* (- 32) k) ?x478 ?x45 ?x46 (* (- 9) ?x52) ?x170 (* 2 (* k m)) ?x512)))
 (let ((?x76 (+ k m)))
 (let ((?x339 (+ 1 n)))
 (let (($x140 (= (+ m (* (- 6) n)) 6)))
 (let (($x387 (not $x140)))
 (let (($x428 (or (not (= (+ k m ?x219 (* (- 3) (* n n))) 6)) $x387 (not (= (* ?x339 ?x76 ?x76 ?x533) 0)) $x553 $x640)))
 (let ((?x198 (* (- 1) (* k k k k n))))
 (let ((?x197 (* (- 9) (* k k n n))))
 (let ((?x196 (* 18 (* c k k n))))
 (let ((?x187 (* 5 (* k k k n))))
 (let ((?x630 (* 9 (* c k k n n))))
 (let (($x200 (= (+ ?x630 (* (- 4) (* n k k)) ?x187 ?x196 ?x197 ?x198) 0)))
 (let (($x298 (= (+ k (* (- 3) n) (* (- 3) (* n n))) 0)))
 (let (($x262 (= (+ ?x257 k ?x259 ?x260) 0)))
 (let (($x217 (= (+ (* 18 c) (* 5 k) ?x219 ?x220 ?x157) 4)))
 (let (($x421 (and $x140 $x217 $x262 $x298 $x200 $x428)))
 (let ((?x82 (* ?x76 ?x76)))
 (let ((?x73 (+ c k)))
 (let ((?x417 (* ?x339 ?x73)))
 (let ((?x438 (* (- 9) ?x417)))
 (let ((?x281 (* (- 23) k)))
 (let ((?x150 (* (- 18) c)))
 (let (($x467 (= (* ?x339 ?x76 ?x76 (+ 13 ?x150 ?x281 ?x438 ?x478 ?x45 ?x82)) 0)))
 (let (($x643 (not $x467)))
 (let ((?x37 (* 18 c)))
 (let (($x525 (= (+ ?x37 (* 23 k) (* 9 ?x417) ?x461 ?x219 (* (- 1) ?x82)) 13)))
 (let (($x320 (= (+ ?x257 (* 4 k) (* (- 1) (* ?x339 ?x76)) m ?x259) 2)))
 (let ((?x61 (* 3 n)))
 (let ((?x514 (* (- 1) m)))
 (let ((?x563 (* (- 1) k)))
 (let (($x287 (not (= (+ (* 3 (* ?x339 ?x339)) ?x563 ?x514 ?x61) (- 3)))))
 (let ((?x401 (* (+ 4 ?x150 (* (- 9) (* n c)) (* (- 5) k) ?x45 ?x46) n k k)))
 (let (($x162 (= ?x401 0)))
 (let (($x171 (= (+ (* 3 (* n n)) ?x563 ?x61) 0)))
 (let (($x468 (= (+ ?x37 (* 9 (* n c)) (* 5 k) ?x219 ?x220) 4)))
 (let (($x379 (and $x140 $x468 (= (+ ?x257 (* (- 1) (* n k)) k ?x259) 0) $x171 $x162 (or $x287 $x387 (not $x320) (not $x525) $x643))))
 (rewrite (= $x379 $x421)))))))))))))))))))))))))))))))))))))))))))))))))))))))))
 ))
 (let (($x380 (exists ((c Int) (k Int) (m Int) (n Int) )(! (let ((?x76 (+ k m)))
 (let ((?x82 (* ?x76 ?x76)))
 (let ((?x45 (* 9 n)))
 (let ((?x478 (* (- 5) m)))
 (let ((?x73 (+ c k)))
 (let ((?x339 (+ 1 n)))
 (let ((?x417 (* ?x339 ?x73)))
 (let ((?x438 (* (- 9) ?x417)))
 (let ((?x281 (* (- 23) k)))
 (let ((?x150 (* (- 18) c)))
 (let (($x467 (= (* ?x339 ?x76 ?x76 (+ 13 ?x150 ?x281 ?x438 ?x478 ?x45 ?x82)) 0)))
 (let (($x643 (not $x467)))
 (let (($x140 (= (+ m (* (- 6) n)) 6)))
 (let (($x387 (not $x140)))
 (let ((?x61 (* 3 n)))
 (let ((?x514 (* (- 1) m)))
 (let ((?x563 (* (- 1) k)))
 (let (($x287 (not (= (+ (* 3 (* ?x339 ?x339)) ?x563 ?x514 ?x61) (- 3)))))
 (let ((?x56 (* 2 n)))
 (let ((?x459 (* ?x339 ?x76)))
 (let ((?x518 (* (- 3) c)))
 (let (($x419 (or (not (= (+ ?x518 (* (- 4) k) ?x459 ?x514 ?x56) (- 2))) $x287 $x387 (not (= (+ ?x150 ?x281 ?x438 ?x478 ?x45 ?x82) (- 13))) $x643)))
 (let ((?x46 (* k k)))
 (let ((?x193 (* (- 5) k)))
 (let ((?x194 (* n c)))
 (let ((?x619 (* (- 9) ?x194)))
 (let (($x162 (= (* (+ 4 ?x150 ?x619 ?x193 ?x45 ?x46) n k k) 0)))
 (let (($x171 (= (+ (* 3 (* n n)) ?x563 ?x61) 0)))
 (and $x140 (= (+ ?x150 ?x619 ?x193 ?x45 ?x46) (- 4)) (= (+ ?x518 (* n k) ?x563 ?x56) 0) $x171 $x162 $x419))))))))))))))))))))))))))))) :qid k!39))
 ))
 (let ((?x725 (lambda ((c Int) (k Int) (m Int) (n Int) )(let ((?x76 (+ k m)))
 (let ((?x82 (* ?x76 ?x76)))
 (let ((?x45 (* 9 n)))
 (let ((?x478 (* (- 5) m)))
 (let ((?x73 (+ c k)))
 (let ((?x339 (+ 1 n)))
 (let ((?x417 (* ?x339 ?x73)))
 (let ((?x438 (* (- 9) ?x417)))
 (let ((?x281 (* (- 23) k)))
 (let ((?x150 (* (- 18) c)))
 (let (($x467 (= (* ?x339 ?x76 ?x76 (+ 13 ?x150 ?x281 ?x438 ?x478 ?x45 ?x82)) 0)))
 (let (($x643 (not $x467)))
 (let ((?x219 (* (- 9) n)))
 (let ((?x461 (* 5 m)))
 (let ((?x37 (* 18 c)))
 (let (($x525 (= (+ ?x37 (* 23 k) (* 9 ?x417) ?x461 ?x219 (* (- 1) ?x82)) 13)))
 (let ((?x259 (* (- 2) n)))
 (let ((?x257 (* 3 c)))
 (let (($x320 (= (+ ?x257 (* 4 k) (* (- 1) (* ?x339 ?x76)) m ?x259) 2)))
 (let (($x140 (= (+ m (* (- 6) n)) 6)))
 (let (($x387 (not $x140)))
 (let ((?x61 (* 3 n)))
 (let ((?x514 (* (- 1) m)))
 (let ((?x563 (* (- 1) k)))
 (let (($x287 (not (= (+ (* 3 (* ?x339 ?x339)) ?x563 ?x514 ?x61) (- 3)))))
 (let ((?x46 (* k k)))
 (let ((?x193 (* (- 5) k)))
 (let ((?x194 (* n c)))
 (let ((?x619 (* (- 9) ?x194)))
 (let (($x162 (= (* (+ 4 ?x150 ?x619 ?x193 ?x45 ?x46) n k k) 0)))
 (let (($x171 (= (+ (* 3 (* n n)) ?x563 ?x61) 0)))
 (let (($x468 (= (+ ?x37 (* 9 ?x194) (* 5 k) ?x219 (* (- 1) ?x46)) 4)))
 (let (($x379 (and $x140 $x468 (= (+ ?x257 (* (- 1) (* n k)) k ?x259) 0) $x171 $x162 (or $x287 $x387 (not $x320) (not $x525) $x643))))
 (let ((?x56 (* 2 n)))
 (let ((?x459 (* ?x339 ?x76)))
 (let ((?x518 (* (- 3) c)))
 (let (($x419 (or (not (= (+ ?x518 (* (- 4) k) ?x459 ?x514 ?x56) (- 2))) $x287 $x387 (not (= (+ ?x150 ?x281 ?x438 ?x478 ?x45 ?x82) (- 13))) $x643)))
 (let (($x463 (and $x140 (= (+ ?x150 ?x619 ?x193 ?x45 ?x46) (- 4)) (= (+ ?x518 (* n k) ?x563 ?x56) 0) $x171 $x162 $x419)))
 (rewrite (= $x463 $x379)))))))))))))))))))))))))))))))))))))))))
 ))
 (let (($x105 (exists ((c Int) (k Int) (m Int) (n Int) )(! (let ((?x76 (+ k m)))
 (let ((?x82 (* ?x76 ?x76)))
 (let ((?x79 (- (- 4 (* 18 (+ c k))) (* 9 (+ c k) (+ n 1)))))
 (let ((?x83 (+ (- ?x79 (* 5 ?x76)) (* 9 (+ n 1)) ?x82)))
 (let ((?x68 (+ n 1)))
 (let ((?x91 (+ (- (+ (* (- 3) (+ c k)) (* ?x76 ?x68)) ?x76) (* 2 ?x68))))
 (let (($x103 (or (not (= (- (+ (- 6) m 6) (* 6 ?x68)) 0)) (not (= ?x83 0)) (not (= ?x91 0)) (not (= (+ (- (* 3 ?x68 ?x68) ?x76) (* 3 ?x68)) 0)) (not (= (* 4 ?x76 ?x76 ?x68 ?x83) 0)))))
 (let ((?x46 (* k k)))
 (let ((?x45 (* 9 n)))
 (let ((?x41 (* 5 k)))
 (let ((?x47 (+ (- (- (- 4 (* 18 c)) (* 9 c n)) ?x41) ?x45 ?x46)))
 (let (($x58 (= (+ (- (+ (* (- 3) c) (* k n)) k) (* 2 n)) 0)))
 (and (= (- (+ (- 6) m) (* 6 n)) 0) (= ?x47 0) $x58 (= (+ (- (* 3 n n) k) (* 3 n)) 0) (= (* 4 k k n ?x47) 0) $x103))))))))))))) :qid k!39))
 ))
 (let ((?x109 (lambda ((c Int) (k Int) (m Int) (n Int) )(let ((?x76 (+ k m)))
 (let ((?x82 (* ?x76 ?x76)))
 (let ((?x45 (* 9 n)))
 (let ((?x478 (* (- 5) m)))
 (let ((?x73 (+ c k)))
 (let ((?x339 (+ 1 n)))
 (let ((?x417 (* ?x339 ?x73)))
 (let ((?x438 (* (- 9) ?x417)))
 (let ((?x281 (* (- 23) k)))
 (let ((?x150 (* (- 18) c)))
 (let (($x467 (= (* ?x339 ?x76 ?x76 (+ 13 ?x150 ?x281 ?x438 ?x478 ?x45 ?x82)) 0)))
 (let (($x643 (not $x467)))
 (let (($x140 (= (+ m (* (- 6) n)) 6)))
 (let (($x387 (not $x140)))
 (let ((?x61 (* 3 n)))
 (let ((?x514 (* (- 1) m)))
 (let ((?x563 (* (- 1) k)))
 (let (($x287 (not (= (+ (* 3 (* ?x339 ?x339)) ?x563 ?x514 ?x61) (- 3)))))
 (let ((?x56 (* 2 n)))
 (let ((?x459 (* ?x339 ?x76)))
 (let ((?x518 (* (- 3) c)))
 (let (($x419 (or (not (= (+ ?x518 (* (- 4) k) ?x459 ?x514 ?x56) (- 2))) $x287 $x387 (not (= (+ ?x150 ?x281 ?x438 ?x478 ?x45 ?x82) (- 13))) $x643)))
 (let ((?x46 (* k k)))
 (let ((?x193 (* (- 5) k)))
 (let ((?x194 (* n c)))
 (let ((?x619 (* (- 9) ?x194)))
 (let (($x162 (= (* (+ 4 ?x150 ?x619 ?x193 ?x45 ?x46) n k k) 0)))
 (let (($x171 (= (+ (* 3 (* n n)) ?x563 ?x61) 0)))
 (let (($x463 (and $x140 (= (+ ?x150 ?x619 ?x193 ?x45 ?x46) (- 4)) (= (+ ?x518 (* n k) ?x563 ?x56) 0) $x171 $x162 $x419)))
 (let ((?x80 (- (- (- 4 (* 18 ?x73)) (* 9 ?x73 (+ n 1))) (* 5 ?x76))))
 (let ((?x83 (+ ?x80 (* 9 (+ n 1)) ?x82)))
 (let ((?x68 (+ n 1)))
 (let (($x92 (= (+ (- (+ (* (- 3) ?x73) (* ?x76 ?x68)) ?x76) (* 2 ?x68)) 0)))
 (let (($x103 (or (not (= (- (+ (- 6) m 6) (* 6 ?x68)) 0)) (not (= ?x83 0)) (not $x92) (not (= (+ (- (* 3 ?x68 ?x68) ?x76) (* 3 ?x68)) 0)) (not (= (* 4 ?x76 ?x76 ?x68 ?x83) 0)))))
 (let ((?x41 (* 5 k)))
 (let ((?x47 (+ (- (- (- 4 (* 18 c)) (* 9 c n)) ?x41) ?x45 ?x46)))
 (let (($x104 (and (= (- (+ (- 6) m) (* 6 n)) 0) (= ?x47 0) (= (+ (- (+ (* (- 3) c) (* k n)) k) ?x56) 0) (= (+ (- (* 3 n n) k) ?x61) 0) (= (* 4 k k n ?x47) 0) $x103)))
 (rewrite (= $x104 $x463))))))))))))))))))))))))))))))))))))))))
 ))
 (let ((@x106 (asserted $x105)))
 (let ((@x500 (mp (mp @x106 (quant-intro (proof-bind ?x109) (= $x105 $x380)) $x380) (rewrite (= $x380 $x380)) $x380)))
 (let ((@x370 (mp (mp @x500 (quant-intro (proof-bind ?x725) (= $x380 $x507)) $x507) (quant-intro (proof-bind ?x615) (= $x507 $x450)) $x450)))
 (let ((@x531 (mp~ (mp @x370 (quant-intro (proof-bind ?x381) (= $x450 $x383)) $x383) (sk (~ $x383 $x406)) $x406)))
 (let ((@x307 (mp @x531 (rewrite (= $x406 $x480)) $x480)))
 (let ((@x159 (and-elim @x307 $x471)))
 (let ((@x119 (unit-resolution ((_ th-lemma arith triangle-eq) (or (not $x471) $x394)) @x159 $x394)))
 (let (($x528 (>= ?x391 0)))
 (let ((@x573 (unit-resolution ((_ th-lemma arith triangle-eq) (or (not $x471) $x528)) @x159 $x528)))
 (let (($x956 (<= c!3 1)))
 (let (($x666 (<= ?x366 (- 4))))
 (let ((@x152 (and-elim @x307 $x154)))
 (let ((@x558 (unit-resolution ((_ th-lemma arith triangle-eq) (or (not $x154) $x666)) @x152 $x666)))
 (let (($x723 (>= ?x366 (- 4))))
 (let ((@x708 (unit-resolution ((_ th-lemma arith triangle-eq) (or (not $x154) $x723)) @x152 $x723)))
 (let (($x447 (<= ?x427 0)))
 (let ((@x231 (and-elim @x307 $x426)))
 (let ((@x430 (unit-resolution ((_ th-lemma arith triangle-eq) (or (not $x426) $x447)) @x231 $x447)))
 (let (($x462 (>= ?x427 0)))
 (let ((@x537 (unit-resolution ((_ th-lemma arith triangle-eq) (or (not $x426) $x462)) @x231 $x462)))
 (let (($x283 (<= ?x596 (- 6))))
 (let ((@x317 (and-elim @x307 $x110)))
 (let ((@x516 (unit-resolution ((_ th-lemma arith triangle-eq) (or $x151 $x283)) @x317 $x283)))
 (let (($x288 (>= ?x596 (- 6))))
 (let ((@x163 (unit-resolution ((_ th-lemma arith triangle-eq) (or $x151 $x288)) @x317 $x288)))
 (let ((@x2828 ((_ th-lemma arith) (hypothesis (not $x956)) @x537 @x430 @x163 @x516 @x537 @x430 @x573 @x119 @x537 @x430 @x537 @x430 @x573 @x119 @x163 @x516 @x163 @x516 @x573 @x119 @x708 @x558 @x708 @x558 @x573 @x119 @x537 @x430 @x708 @x558 false)))
 (let ((@x2897 (lemma @x2828 $x956)))
 (let (($x782 (not $x113)))
 (let ((@x2025 (hypothesis $x782)))
 (let ((@x3089 ((_ th-lemma arith) @x537 @x430 @x537 @x430 @x2025 @x2897 @x2025 @x2897 @x2025 @x2897 @x2025 @x2897 @x2025 @x2897 @x2025 @x2897 @x2025 @x2897 @x2025 @x2897 @x537 @x430 @x537 @x430 @x2025 @x2897 @x708 @x558 @x2025 @x2897 @x573 @x119 @x708 @x558 @x2025 @x2897 @x573 @x119 false)))
 (let ((@x216 (hypothesis $x156)))
 (let (($x126 (>= ?x211 1)))
 (let ((@x213 (hypothesis (not $x126))))
 (let ((@x404 (hypothesis $x457)))
 (let (($x114 (<= n!0 1)))
 (let (($x136 (not $x114)))
 (let ((@x218 (hypothesis $x114)))
 (let (($x332 (<= m!1 6)))
 (let (($x264 (not $x332)))
 (let (($x337 (>= n!0 0)))
 (let (($x241 (<= k!2 0)))
 (let (($x348 (not $x241)))
 (let ((@x513 (hypothesis (not $x337))))
 (let (($x118 (>= k!2 0)))
 (let ((@x559 (hypothesis (not $x118))))
 (let ((@x334 (lemma ((_ th-lemma arith) @x559 @x430 @x559 @x430 @x559 @x430 false) $x118)))
 (let ((@x147 (lemma ((_ th-lemma arith farkas 1 -3/2 -1/6 -1/2 1/6 1 1) @x573 @x213 @x558 @x513 @x334 @x334 (hypothesis $x241) false) (or $x348 $x126 $x337))))
 (let ((@x569 (unit-resolution @x147 @x513 @x213 $x348)))
 (let ((@x425 (unit-resolution (lemma ((_ th-lemma arith farkas 1 1 1) @x213 @x513 @x404 false) (or $x156 $x126 $x337)) @x513 @x213 $x156)))
 (let ((@x460 (lemma ((_ th-lemma arith farkas -2 1 1 3 1 1) @x513 @x569 @x573 @x425 @x513 @x569 false) (or $x337 $x126))))
 (let ((@x263 ((_ th-lemma arith farkas 1 -1/6 -3/2 -1/6 1 1 1) @x573 @x430 @x213 @x558 (unit-resolution @x460 @x213 $x337) (hypothesis $x332) @x516 false)))
 (let ((@x215 (unit-resolution (lemma @x263 (or $x264 $x126)) @x213 $x264)))
 (let ((@x242 (lemma ((_ th-lemma arith farkas 1/3 1/3 1 3 3 3 3 1 1 1) @x215 @x163 @x119 @x213 @x215 @x163 @x218 @x215 @x163 @x218 false) (or $x136 $x126))))
 (let ((@x793 (unit-resolution @x242 @x213 $x136)))
 (let (($x176 (<= ?x519 0)))
 (let ((@x124 (and-elim @x307 $x522)))
 (let ((@x797 (unit-resolution ((_ th-lemma arith triangle-eq) (or (not $x522) $x176)) @x124 $x176)))
 (let ((@x798 ((_ th-lemma arith) @x797 @x793 @x404 @x793 @x213 @x558 @x793 @x404 @x793 @x213 @x558 @x404 @x404 @x793 @x213 @x558 @x404 @x793 @x213 @x558 @x404 false)))
 (let ((@x111 (hypothesis $x113)))
 (let (($x222 (<= k!2 6)))
 (let (($x706 (not $x222)))
 (let ((@x115 (hypothesis $x136)))
 (let ((@x143 (hypothesis $x222)))
 (let ((@x705 ((_ th-lemma arith gcd-test 2/3 2/3 2/3 2/3 2/3 2/3 -2/3 -2/3 1/9 1/9 1/9 1/9 -1/9 -1/9 -1/9 -1/9 -1/9 -1/9 -1/9 -1/9 -1/9 -1/9 -1/9 -1/9) @x430 @x115 @x143 @x430 @x115 @x143 @x573 @x119 @x537 @x430 @x708 @x558 @x430 @x115 @x143 @x430 @x115 @x143 @x430 @x115 @x143 @x430 @x115 @x143 false)))
 (let ((@x776 (unit-resolution (lemma @x705 (or $x706 $x114)) @x115 $x706)))
 (let (($x508 (>= ?x519 0)))
 (let ((@x779 (unit-resolution ((_ th-lemma arith triangle-eq) (or (not $x522) $x508)) @x124 $x508)))
 (let ((@x780 ((_ th-lemma arith) @x115 @x779 @x797 @x115 @x776 @x119 @x216 @x708 @x111 @x115 @x115 @x776 @x119 @x216 @x708 @x111 @x216 @x111 @x115 @x111 @x776 @x119 @x115 @x111 @x776 @x119 @x216 @x111 false)))
 (let ((@x786 (unit-resolution (lemma @x780 (or $x782 $x114 $x457)) @x793 (unit-resolution (lemma @x798 (or $x156 $x126)) @x213 $x156) $x782)))
 (let ((@x788 (lemma ((_ th-lemma arith farkas 1 1 1) @x213 @x793 @x786 false) $x126)))
 (let (($x926 (>= ?x593 0)))
 (let (($x128 (<= k!2 1)))
 (let (($x911 (>= (+ ?x227 (* 2 ?x177) (* (- 1) c!3) ?x389) 2)))
 (let (($x874 (not $x911)))
 (let ((@x900 (hypothesis (not $x128))))
 (let (($x829 (>= (+ ?x227 ?x177 (* (- 2) c!3) ?x389) 3)))
 (let ((@x791 (hypothesis $x829)))
 (let ((@x701 ((_ th-lemma arith) @x791 @x791 @x537 @x430 @x573 @x119 @x573 @x119 @x537 @x430 @x573 @x119 @x537 @x430 @x573 @x119 @x537 @x430 @x573 @x119 @x708 @x558 @x537 @x430 @x163 @x516 @x537 @x430 @x779 @x797 false)))
 (let ((@x890 ((_ th-lemma arith) @x537 @x430 @x537 @x430 @x573 @x119 (hypothesis $x911) @x573 (lemma @x701 (not $x829)) @x513 @x900 @x779 @x797 @x708 @x558 @x537 @x430 false)))
 (let ((@x923 ((_ th-lemma arith farkas 1/3 1/3 -1/3 2/3 -2/3 1) @x513 @x900 @x573 @x513 @x537 (unit-resolution (lemma @x890 (or $x874 $x337 $x128)) @x900 @x513 $x874) false)))
 (let ((@x932 (unit-resolution (lemma @x923 (or $x128 $x337)) @x513 $x128)))
 (let ((@x934 (hypothesis (not $x926))))
 (let ((@x935 ((_ th-lemma arith gcd-test -1/3 -1/3 -1/3 2/3 2/3 -2/3 -2/3 -2/3 -2/3 -2/3 -2/3) @x934 @x513 @x932 @x573 @x119 @x934 @x513 @x932 @x934 @x513 @x932 false)))
 (let ((@x928 (unit-resolution (lemma @x935 (or $x926 $x337)) @x513 $x926)))
 (let ((@x938 (lemma ((_ th-lemma arith gcd-test 1/9 1/9 -1/9 -1/9 -1/9 -1/9 -1/9 -1/9 1/3 1/3) @x708 @x558 @x334 @x928 @x513 @x334 @x928 @x513 @x537 @x430 false) $x337)))
 (let ((@x826 (lemma ((_ th-lemma arith farkas 1 1 1) @x788 @x938 (hypothesis (<= ?x582 1)) false) (not (<= ?x582 1)))))
 (let ((@x3090 (lemma ((_ th-lemma arith farkas -1 1) @x826 (hypothesis (<= n!0 0)) false) (not (<= n!0 0)))))
 ((_ th-lemma arith farkas 1 1 1) @x788 @x3090 (lemma ((_ th-lemma arith farkas 1 1 1) @x788 @x216 (lemma @x3089 $x113) false) $x457) false)))))))))))))))))))))))))))))))))))))))))))))))))))))))))))))))))))))))))))))))))))))))))))))))))))))))))))))))))))))))))))))))))))))))))))))))))))))))))

(:added-eqs                 139
 :arith-assert-diseq        70
 :arith-assert-lower        2464
 :arith-assert-upper        690
 :arith-bound-prop          11
 :arith-branch-var          74
 :arith-conflicts           121
 :arith-eq-adapter          13
 :arith-fixed-eqs           252
 :arith-gcd-tests           1239
 :arith-gomory-cuts         63
 :arith-grobner             180
 :arith-ineq-splits         74
 :arith-max-min             12250
 :arith-nonlinear-bounds    531
 :arith-nonlinear-horner    2441
 :arith-num-rows            26
 :arith-offset-eqs          13
 :arith-patches             233
 :arith-patches_succ        86
 :arith-pivots              5693
 :arith-pseudo-nonlinear    281
 :arith-row-summations      43733
 :arith-tableau-max-columns 74
 :arith-tableau-max-rows    26
 :conflicts                 144
 :decisions                 530
 :del-clause                54
 :final-checks              535
 :max-memory                4.76
 :memory                    3.50
 :minimized-lits            24
 :mk-bool-var               526
 :mk-clause                 295
 :num-allocs                606055195
 :num-checks                1
 :propagations              807
 :restarts                  1
 :rlimit-count              2580145
 :time                      3.86
 :total-time                3.85)
